maximize
OBJ:100x0 + 100x1 + 100x2 + 100x3 + 100x4 + 100x5 + 100x6 + 100x7 + 100x8 + 100x9 + 100x10 + 100x11 + 100x12 + 100x13 + 100x14 + 100x15 + 100x16 + 100x17 + 100x18 + 100x19 + 100x20 + 100x21 + 100x22 + 100x23 + 100x24 + 100x25 + 100x26 + 100x27 + 100x28 + 100x29 + 100x30 + 100x31 + 100x32 + 100x33 + 100x34 + 100x35 + 100x36 + 100x37 + 100x38 + 100x39 + 100x40 + 100x41 + 100x42 + 100x43 + 100x44 + 100x45 + 100x46 + 100x47 + 100x48 + 100x49 + 100x50 + 100x51 + 100x52 + 100x53 + 100x54 + 100x55 + 100x56 + 100x57 + 100x58 + 100x59 - y47_53 - y7_26 - y18_26 - y15_39 - y28_58 - y7_35 - y0_5 - y29_41 - y21_37 - y0_14 - y21_46 - y0_23 - y6_57 - y40_59 - y41_42 - y2_32 - y25_34 - y33_47 - y3_6 - y3_24 - y14_24 - y3_33 - y14_42 - y15_16 - y36_48 - y36_57 - y17_53 - y7_30 - y9_58 - y29_36 - y21_41 - y6_52 - y2_27 - y2_36 - y3_10 - y51_59 - y2_54 - y32_55 - y3_37 - y55_56 - y7_16 - y36_52 - y17_57 - y40_49 - y21_45 - y21_54 - y10_35 - y33_37 - y2_31 - y2_40 - y25_42 - y32_41 - y51_54 - y43_50 - y24_46 - y35_46 - y14_23 - y36_38 - y17_34 - y28_34 - y7_11 - y9_30 - y28_52 - y50_58 - y6_42 - y29_44 - y21_40 - y20_53 - y23_58 - y24_32 - y51_58 - y13_41 - y35_41 - y3_18 - y16_37 - y35_50 - y16_46 - y1_57 - y24_59 - y16_55 - y17_20 - y5_27 - y36_42 - y9_25 - y17_38 - y28_38 - y36_51 - y5_45 - y17_47 - y28_47 - y9_52 - y29_30 - y21_26 - y6_37 - y39_43 - y20_39 - y10_16 - y39_52 - y20_57 - y54_59 - y12_53 - y13_27 - y24_27 - y3_4 - y32_40 - y13_36 - y43_49 - y13_45 - y24_45 - y16_50 - y9_11 - y5_22 - y17_33 - y9_38 - y5_49 - y5_58 - y42_44 - y42_53 - y0_56 - y20_34 - y39_47 - y20_43 - y39_56 - y12_39 - y23_57 - y4_53 - y1_29 - y24_31 - y16_27 - y13_40 - y35_40 - y43_53 - y5_8 - y35_58 - y17_19 - y46_55 - y49_51 - y17_37 - y6_9 - y6_18 - y27_50 - y8_46 - y30_46 - y27_59 - y42_48 - y8_55 - y19_55 - y0_51 - y12_34 - y31_47 - y12_52 - y13_17 - y4_48 - y13_26 - y32_39 - y16_22 - y24_35 - y24_44 - y16_40 - y1_51 - y16_49 - y5_12 - y9_10 - y46_59 - y5_30 - y5_39 - y18_58 - y6_13 - y30_41 - y42_43 - y0_37 - y19_50 - y30_59 - y11_55 - y20_33 - y31_33 - y39_46 - y20_42 - y1_10 - y23_56 - y4_52 - y34_53 - y1_28 - y5_16 - y9_14 - y15_48 - y5_25 - y7_44 - y8_36 - y19_36 - y0_32 - y11_32 - y30_45 - y27_58 - y0_41 - y8_54 - y30_54 - y0_50 - y11_50 - y20_28 - y12_24 - y34_39 - y13_16 - y1_23 - y37_44 - y22_55 - y56_57 - y3_51 - y37_53 - y16_30 - y26_34 - y46_49 - y15_43 - y38_45 - y46_58 - y18_39 - y15_52 - y26_52 - y49_54 - y8_13 - y7_57 - y19_22 - y11_18 - y30_31 - y30_49 - y41_46 - y20_23 - y0_54 - y12_19 - y41_55 - y31_32 - y4_15 - y4_33 - y37_39 - y34_52 - y3_46 - y22_59 - y15_20 - y7_25 - y18_34 - y38_49 - y18_43 - y15_56 - y0_4 - y27_30 - y19_26 - y0_22 - y29_58 - y8_35 - y19_35 - y30_35 - y0_31 - y11_31 - y11_49 - y52_59 - y44_55 - y4_28 - y1_4 - y34_38 - y3_32 - y45_47 - y14_41 - y45_56 - y3_59 - y7_29 - y18_38 - y26_51 - y18_47 - y8_12 - y0_8 - y40_53 - y0_26 - y0_35 - y41_54 - y25_37 - y10_48 - y25_46 - y2_53 - y22_40 - y34_42 - y14_36 - y37_38 - y22_49 - y37_47 - y15_28 - y7_33 - y0_3 - y29_39 - y8_16 - y29_48 - y40_48 - y19_25 - y21_44 - y10_34 - y4_9 - y10_43 - y52_58 - y2_39 - y44_54 - y2_57 - y25_59 - y22_35 - y14_31 - y22_44 - y22_53 - y7_10 - y36_46 - y55_59 - y18_19 - y36_55 - y15_32 - y26_32 - y0_7 - y6_41 - y48_56 - y11_16 - y6_59 - y21_57 - y2_25 - y25_36 - y44_49 - y25_45 - y10_56 - y2_52 - y14_17 - y32_53 - y3_35 - y14_35 - y7_14 - y36_50 - y47_50 - y28_46 - y7_23 - y6_27 - y0_2 - y6_36 - y29_38 - y6_45 - y6_54 - y33_35 - y3_21 - y14_21 - y35_53 - y16_58 - y17_41 - y36_54 - y47_54 - y6_22 - y6_31 - y29_33 - y6_40 - y21_38 - y29_51 - y40_51 - y21_47 - y10_19 - y39_55 - y25_35 - y3_16 - y14_16 - y1_55 - y35_57 - y16_53 - y36_40 - y47_49 - y17_45 - y47_58 - y9_50 - y6_26 - y21_24 - y21_33 - y2_19 - y31_55 - y23_51 - y13_25 - y1_41 - y35_43 - y32_56 - y1_50 - y13_52 - y9_18 - y17_40 - y28_40 - y6_12 - y58_59 - y6_39 - y8_58 - y39_45 - y2_14 - y23_46 - y4_42 - y13_20 - y4_51 - y32_42 - y1_36 - y16_43 - y46_53 - y17_26 - y36_39 - y49_58 - y8_53 - y20_27 - y0_58 - y31_36 - y39_49 - y39_58 - y20_54 - y12_50 - y12_59 - y23_59 - y32_37 - y16_20 - y32_46 - y43_46 - y13_42 - y24_42 - y35_42 - y1_58 - y5_19 - y17_21 - y9_17 - y17_30 - y28_30 - y50_54 - y30_48 - y42_50 - y20_22 - y20_31 - y12_27 - y39_53 - y4_32 - y23_45 - y1_8 - y20_58 - y12_54 - y23_54 - y1_35 - y35_37 - y16_33 - y5_14 - y46_52 - y38_57 - y49_57 - y19_34 - y27_47 - y8_43 - y19_43 - y27_56 - y0_39 - y12_13 - y20_26 - y20_35 - y1_3 - y4_36 - y23_49 - y1_12 - y13_14 - y45_46 - y13_23 - y37_51 - y14_58 - y5_9 - y5_18 - y46_56 - y15_50 - y38_52 - y49_52 - y7_46 - y26_59 - y27_33 - y8_29 - y8_38 - y27_51 - y0_34 - y19_47 - y11_52 - y12_17 - y20_30 - y12_26 - y31_39 - y4_22 - y12_35 - y1_16 - y34_50 - y1_25 - y22_57 - y34_59 - y45_59 - y3_53 - y37_55 - y5_13 - y7_32 - y18_41 - y26_54 - y38_56 - y7_50 - y8_15 - y19_24 - y30_33 - y0_47 - y20_25 - y44_53 - y12_30 - y23_30 - y25_58 - y22_34 - y1_11 - y34_45 - y53_58 - y3_39 - y34_54 - y45_54 - y3_48 - y37_50 - y15_40 - y38_42 - y7_36 - y18_36 - y15_49 - y26_49 - y7_54 - y48_55 - y11_24 - y0_42 - y33_39 - y10_46 - y44_48 - y22_29 - y1_6 - y34_40 - y22_47 - y56_58 - y15_17 - y7_13 - y18_22 - y18_31 - y8_14 - y48_50 - y29_46 - y19_23 - y48_59 - y29_55 - y0_28 - y33_34 - y4_7 - y33_43 - y52_56 - y25_39 - y4_16 - y2_46 - y22_24 - y2_55 - y22_42 - y14_38 - y37_40 - y22_51 - y3_47 - y14_56
 Subject to
C1: x0+x1 <=1 
C2: x0+x2-y0_2 <=1 
C3: x0+x3-y0_3 <=1 
C4: x0+x4-y0_4 <=1 
C5: x0+x5-y0_5 <=1 
C6: x0+x6 <=1 
C7: x0+x7-y0_7 <=1 
C8: x0+x8-y0_8 <=1 
C9: x0+x10 <=1 
C10: x0+x13 <=1 
C11: x0+x14-y0_14 <=1 
C12: x0+x16 <=1 
C13: x0+x17 <=1 
C14: x0+x20 <=1 
C15: x0+x21 <=1 
C16: x0+x22-y0_22 <=1 
C17: x0+x23-y0_23 <=1 
C18: x0+x26-y0_26 <=1 
C19: x0+x27 <=1 
C20: x0+x28-y0_28 <=1 
C21: x0+x30 <=1 
C22: x0+x31-y0_31 <=1 
C23: x0+x32-y0_32 <=1 
C24: x0+x34-y0_34 <=1 
C25: x0+x35-y0_35 <=1 
C26: x0+x37-y0_37 <=1 
C27: x0+x39-y0_39 <=1 
C28: x0+x41-y0_41 <=1 
C29: x0+x42-y0_42 <=1 
C30: x0+x43 <=1 
C31: x0+x45 <=1 
C32: x0+x47-y0_47 <=1 
C33: x0+x48 <=1 
C34: x0+x49 <=1 
C35: x0+x50-y0_50 <=1 
C36: x0+x51-y0_51 <=1 
C37: x0+x52 <=1 
C38: x0+x54-y0_54 <=1 
C39: x0+x55 <=1 
C40: x0+x56-y0_56 <=1 
C41: x0+x57 <=1 
C42: x0+x58-y0_58 <=1 
C43: x0+x59 <=1 
C44: x1+x3-y1_3 <=1 
C45: x1+x4-y1_4 <=1 
C46: x1+x6-y1_6 <=1 
C47: x1+x7 <=1 
C48: x1+x8-y1_8 <=1 
C49: x1+x10-y1_10 <=1 
C50: x1+x11-y1_11 <=1 
C51: x1+x12-y1_12 <=1 
C52: x1+x14 <=1 
C53: x1+x16-y1_16 <=1 
C54: x1+x18 <=1 
C55: x1+x21 <=1 
C56: x1+x22 <=1 
C57: x1+x23-y1_23 <=1 
C58: x1+x24 <=1 
C59: x1+x25-y1_25 <=1 
C60: x1+x28-y1_28 <=1 
C61: x1+x29-y1_29 <=1 
C62: x1+x34 <=1 
C63: x1+x35-y1_35 <=1 
C64: x1+x36-y1_36 <=1 
C65: x1+x37 <=1 
C66: x1+x41-y1_41 <=1 
C67: x1+x44 <=1 
C68: x1+x45 <=1 
C69: x1+x46 <=1 
C70: x1+x47 <=1 
C71: x1+x49 <=1 
C72: x1+x50-y1_50 <=1 
C73: x1+x51-y1_51 <=1 
C74: x1+x52 <=1 
C75: x1+x54 <=1 
C76: x1+x55-y1_55 <=1 
C77: x1+x56 <=1 
C78: x1+x57-y1_57 <=1 
C79: x1+x58-y1_58 <=1 
C80: x1+x59 <=1 
C81: x2+x4 <=1 
C82: x2+x5 <=1 
C83: x2+x14-y2_14 <=1 
C84: x2+x16 <=1 
C85: x2+x18 <=1 
C86: x2+x19-y2_19 <=1 
C87: x2+x20 <=1 
C88: x2+x22 <=1 
C89: x2+x25-y2_25 <=1 
C90: x2+x27-y2_27 <=1 
C91: x2+x28 <=1 
C92: x2+x30 <=1 
C93: x2+x31-y2_31 <=1 
C94: x2+x32-y2_32 <=1 
C95: x2+x33 <=1 
C96: x2+x34 <=1 
C97: x2+x35 <=1 
C98: x2+x36-y2_36 <=1 
C99: x2+x37 <=1 
C100: x2+x39-y2_39 <=1 
C101: x2+x40-y2_40 <=1 
C102: x2+x41 <=1 
C103: x2+x44 <=1 
C104: x2+x45 <=1 
C105: x2+x46-y2_46 <=1 
C106: x2+x52-y2_52 <=1 
C107: x2+x53-y2_53 <=1 
C108: x2+x54-y2_54 <=1 
C109: x2+x55-y2_55 <=1 
C110: x2+x57-y2_57 <=1 
C111: x3+x4-y3_4 <=1 
C112: x3+x5 <=1 
C113: x3+x6-y3_6 <=1 
C114: x3+x7 <=1 
C115: x3+x8 <=1 
C116: x3+x10-y3_10 <=1 
C117: x3+x11 <=1 
C118: x3+x12 <=1 
C119: x3+x13 <=1 
C120: x3+x16-y3_16 <=1 
C121: x3+x17 <=1 
C122: x3+x18-y3_18 <=1 
C123: x3+x20 <=1 
C124: x3+x21-y3_21 <=1 
C125: x3+x24-y3_24 <=1 
C126: x3+x25 <=1 
C127: x3+x32-y3_32 <=1 
C128: x3+x33-y3_33 <=1 
C129: x3+x34 <=1 
C130: x3+x35-y3_35 <=1 
C131: x3+x36 <=1 
C132: x3+x37-y3_37 <=1 
C133: x3+x38 <=1 
C134: x3+x39-y3_39 <=1 
C135: x3+x40 <=1 
C136: x3+x43 <=1 
C137: x3+x44 <=1 
C138: x3+x45 <=1 
C139: x3+x46-y3_46 <=1 
C140: x3+x47-y3_47 <=1 
C141: x3+x48-y3_48 <=1 
C142: x3+x51-y3_51 <=1 
C143: x3+x53-y3_53 <=1 
C144: x3+x56 <=1 
C145: x3+x58 <=1 
C146: x3+x59-y3_59 <=1 
C147: x4+x5 <=1 
C148: x4+x7-y4_7 <=1 
C149: x4+x9-y4_9 <=1 
C150: x4+x15-y4_15 <=1 
C151: x4+x16-y4_16 <=1 
C152: x4+x21 <=1 
C153: x4+x22-y4_22 <=1 
C154: x4+x26 <=1 
C155: x4+x27 <=1 
C156: x4+x28-y4_28 <=1 
C157: x4+x29 <=1 
C158: x4+x30 <=1 
C159: x4+x32-y4_32 <=1 
C160: x4+x33-y4_33 <=1 
C161: x4+x34 <=1 
C162: x4+x35 <=1 
C163: x4+x36-y4_36 <=1 
C164: x4+x37 <=1 
C165: x4+x38 <=1 
C166: x4+x39 <=1 
C167: x4+x40 <=1 
C168: x4+x41 <=1 
C169: x4+x42-y4_42 <=1 
C170: x4+x43 <=1 
C171: x4+x46 <=1 
C172: x4+x48-y4_48 <=1 
C173: x4+x50 <=1 
C174: x4+x51-y4_51 <=1 
C175: x4+x52-y4_52 <=1 
C176: x4+x53-y4_53 <=1 
C177: x4+x54 <=1 
C178: x4+x55 <=1 
C179: x4+x58 <=1 
C180: x5+x6 <=1 
C181: x5+x7 <=1 
C182: x5+x8-y5_8 <=1 
C183: x5+x9-y5_9 <=1 
C184: x5+x11 <=1 
C185: x5+x12-y5_12 <=1 
C186: x5+x13-y5_13 <=1 
C187: x5+x14-y5_14 <=1 
C188: x5+x16-y5_16 <=1 
C189: x5+x17 <=1 
C190: x5+x18-y5_18 <=1 
C191: x5+x19-y5_19 <=1 
C192: x5+x20 <=1 
C193: x5+x22-y5_22 <=1 
C194: x5+x23 <=1 
C195: x5+x24 <=1 
C196: x5+x25-y5_25 <=1 
C197: x5+x27-y5_27 <=1 
C198: x5+x30-y5_30 <=1 
C199: x5+x31 <=1 
C200: x5+x37 <=1 
C201: x5+x39-y5_39 <=1 
C202: x5+x42 <=1 
C203: x5+x43 <=1 
C204: x5+x44 <=1 
C205: x5+x45-y5_45 <=1 
C206: x5+x46 <=1 
C207: x5+x49-y5_49 <=1 
C208: x5+x50 <=1 
C209: x5+x51 <=1 
C210: x5+x55 <=1 
C211: x5+x56 <=1 
C212: x5+x58-y5_58 <=1 
C213: x6+x8 <=1 
C214: x6+x9-y6_9 <=1 
C215: x6+x10 <=1 
C216: x6+x12-y6_12 <=1 
C217: x6+x13-y6_13 <=1 
C218: x6+x14 <=1 
C219: x6+x15 <=1 
C220: x6+x18-y6_18 <=1 
C221: x6+x19 <=1 
C222: x6+x21 <=1 
C223: x6+x22-y6_22 <=1 
C224: x6+x26-y6_26 <=1 
C225: x6+x27-y6_27 <=1 
C226: x6+x28 <=1 
C227: x6+x30 <=1 
C228: x6+x31-y6_31 <=1 
C229: x6+x33 <=1 
C230: x6+x34 <=1 
C231: x6+x36-y6_36 <=1 
C232: x6+x37-y6_37 <=1 
C233: x6+x38 <=1 
C234: x6+x39-y6_39 <=1 
C235: x6+x40-y6_40 <=1 
C236: x6+x41-y6_41 <=1 
C237: x6+x42-y6_42 <=1 
C238: x6+x45-y6_45 <=1 
C239: x6+x46 <=1 
C240: x6+x47 <=1 
C241: x6+x51 <=1 
C242: x6+x52-y6_52 <=1 
C243: x6+x54-y6_54 <=1 
C244: x6+x55 <=1 
C245: x6+x56 <=1 
C246: x6+x57-y6_57 <=1 
C247: x6+x58 <=1 
C248: x6+x59-y6_59 <=1 
C249: x7+x10-y7_10 <=1 
C250: x7+x11-y7_11 <=1 
C251: x7+x13-y7_13 <=1 
C252: x7+x14-y7_14 <=1 
C253: x7+x16-y7_16 <=1 
C254: x7+x18 <=1 
C255: x7+x20 <=1 
C256: x7+x23-y7_23 <=1 
C257: x7+x24 <=1 
C258: x7+x25-y7_25 <=1 
C259: x7+x26-y7_26 <=1 
C260: x7+x29-y7_29 <=1 
C261: x7+x30-y7_30 <=1 
C262: x7+x31 <=1 
C263: x7+x32-y7_32 <=1 
C264: x7+x33-y7_33 <=1 
C265: x7+x34 <=1 
C266: x7+x35-y7_35 <=1 
C267: x7+x36-y7_36 <=1 
C268: x7+x37 <=1 
C269: x7+x42 <=1 
C270: x7+x44-y7_44 <=1 
C271: x7+x46-y7_46 <=1 
C272: x7+x47 <=1 
C273: x7+x48 <=1 
C274: x7+x49 <=1 
C275: x7+x50-y7_50 <=1 
C276: x7+x51 <=1 
C277: x7+x52 <=1 
C278: x7+x54-y7_54 <=1 
C279: x7+x55 <=1 
C280: x7+x56 <=1 
C281: x7+x57-y7_57 <=1 
C282: x7+x59 <=1 
C283: x8+x12-y8_12 <=1 
C284: x8+x13-y8_13 <=1 
C285: x8+x14-y8_14 <=1 
C286: x8+x15-y8_15 <=1 
C287: x8+x16-y8_16 <=1 
C288: x8+x17 <=1 
C289: x8+x21 <=1 
C290: x8+x23 <=1 
C291: x8+x24 <=1 
C292: x8+x26 <=1 
C293: x8+x27 <=1 
C294: x8+x28 <=1 
C295: x8+x29-y8_29 <=1 
C296: x8+x30 <=1 
C297: x8+x31 <=1 
C298: x8+x34 <=1 
C299: x8+x35-y8_35 <=1 
C300: x8+x36-y8_36 <=1 
C301: x8+x37 <=1 
C302: x8+x38-y8_38 <=1 
C303: x8+x40 <=1 
C304: x8+x41 <=1 
C305: x8+x42 <=1 
C306: x8+x43-y8_43 <=1 
C307: x8+x46-y8_46 <=1 
C308: x8+x47 <=1 
C309: x8+x48 <=1 
C310: x8+x49 <=1 
C311: x8+x52 <=1 
C312: x8+x53-y8_53 <=1 
C313: x8+x54-y8_54 <=1 
C314: x8+x55-y8_55 <=1 
C315: x8+x57 <=1 
C316: x8+x58-y8_58 <=1 
C317: x8+x59 <=1 
C318: x9+x10-y9_10 <=1 
C319: x9+x11-y9_11 <=1 
C320: x9+x13 <=1 
C321: x9+x14-y9_14 <=1 
C322: x9+x16 <=1 
C323: x9+x17-y9_17 <=1 
C324: x9+x18-y9_18 <=1 
C325: x9+x23 <=1 
C326: x9+x24 <=1 
C327: x9+x25-y9_25 <=1 
C328: x9+x26 <=1 
C329: x9+x28 <=1 
C330: x9+x30-y9_30 <=1 
C331: x9+x32 <=1 
C332: x9+x33 <=1 
C333: x9+x35 <=1 
C334: x9+x36 <=1 
C335: x9+x37 <=1 
C336: x9+x38-y9_38 <=1 
C337: x9+x41 <=1 
C338: x9+x42 <=1 
C339: x9+x43 <=1 
C340: x9+x46 <=1 
C341: x9+x47 <=1 
C342: x9+x48 <=1 
C343: x9+x49 <=1 
C344: x9+x50-y9_50 <=1 
C345: x9+x52-y9_52 <=1 
C346: x9+x53 <=1 
C347: x9+x58-y9_58 <=1 
C348: x10+x11 <=1 
C349: x10+x13 <=1 
C350: x10+x14 <=1 
C351: x10+x16-y10_16 <=1 
C352: x10+x17 <=1 
C353: x10+x19-y10_19 <=1 
C354: x10+x20 <=1 
C355: x10+x21 <=1 
C356: x10+x22 <=1 
C357: x10+x23 <=1 
C358: x10+x24 <=1 
C359: x10+x29 <=1 
C360: x10+x31 <=1 
C361: x10+x34-y10_34 <=1 
C362: x10+x35-y10_35 <=1 
C363: x10+x36 <=1 
C364: x10+x38 <=1 
C365: x10+x42 <=1 
C366: x10+x43-y10_43 <=1 
C367: x10+x44 <=1 
C368: x10+x45 <=1 
C369: x10+x46-y10_46 <=1 
C370: x10+x48-y10_48 <=1 
C371: x10+x49 <=1 
C372: x10+x51 <=1 
C373: x10+x53 <=1 
C374: x10+x56-y10_56 <=1 
C375: x10+x57 <=1 
C376: x11+x13 <=1 
C377: x11+x14 <=1 
C378: x11+x15 <=1 
C379: x11+x16-y11_16 <=1 
C380: x11+x18-y11_18 <=1 
C381: x11+x19 <=1 
C382: x11+x20 <=1 
C383: x11+x22 <=1 
C384: x11+x23 <=1 
C385: x11+x24-y11_24 <=1 
C386: x11+x26 <=1 
C387: x11+x27 <=1 
C388: x11+x28 <=1 
C389: x11+x31-y11_31 <=1 
C390: x11+x32-y11_32 <=1 
C391: x11+x34 <=1 
C392: x11+x35 <=1 
C393: x11+x38 <=1 
C394: x11+x44 <=1 
C395: x11+x45 <=1 
C396: x11+x46 <=1 
C397: x11+x49-y11_49 <=1 
C398: x11+x50-y11_50 <=1 
C399: x11+x52-y11_52 <=1 
C400: x11+x54 <=1 
C401: x11+x55-y11_55 <=1 
C402: x11+x56 <=1 
C403: x11+x58 <=1 
C404: x12+x13-y12_13 <=1 
C405: x12+x17-y12_17 <=1 
C406: x12+x19-y12_19 <=1 
C407: x12+x22 <=1 
C408: x12+x24-y12_24 <=1 
C409: x12+x25 <=1 
C410: x12+x26-y12_26 <=1 
C411: x12+x27-y12_27 <=1 
C412: x12+x28 <=1 
C413: x12+x30-y12_30 <=1 
C414: x12+x32 <=1 
C415: x12+x34-y12_34 <=1 
C416: x12+x35-y12_35 <=1 
C417: x12+x36 <=1 
C418: x12+x37 <=1 
C419: x12+x39-y12_39 <=1 
C420: x12+x40 <=1 
C421: x12+x43 <=1 
C422: x12+x48 <=1 
C423: x12+x49 <=1 
C424: x12+x50-y12_50 <=1 
C425: x12+x52-y12_52 <=1 
C426: x12+x53-y12_53 <=1 
C427: x12+x54-y12_54 <=1 
C428: x12+x55 <=1 
C429: x12+x57 <=1 
C430: x12+x59-y12_59 <=1 
C431: x13+x14-y13_14 <=1 
C432: x13+x16-y13_16 <=1 
C433: x13+x17-y13_17 <=1 
C434: x13+x19 <=1 
C435: x13+x20-y13_20 <=1 
C436: x13+x23-y13_23 <=1 
C437: x13+x25-y13_25 <=1 
C438: x13+x26-y13_26 <=1 
C439: x13+x27-y13_27 <=1 
C440: x13+x32 <=1 
C441: x13+x35 <=1 
C442: x13+x36-y13_36 <=1 
C443: x13+x37 <=1 
C444: x13+x38 <=1 
C445: x13+x40-y13_40 <=1 
C446: x13+x41-y13_41 <=1 
C447: x13+x42-y13_42 <=1 
C448: x13+x43 <=1 
C449: x13+x45-y13_45 <=1 
C450: x13+x46 <=1 
C451: x13+x47 <=1 
C452: x13+x48 <=1 
C453: x13+x51 <=1 
C454: x13+x52-y13_52 <=1 
C455: x13+x54 <=1 
C456: x13+x55 <=1 
C457: x13+x56 <=1 
C458: x14+x16-y14_16 <=1 
C459: x14+x17-y14_17 <=1 
C460: x14+x21-y14_21 <=1 
C461: x14+x22 <=1 
C462: x14+x23-y14_23 <=1 
C463: x14+x24-y14_24 <=1 
C464: x14+x26 <=1 
C465: x14+x31-y14_31 <=1 
C466: x14+x34 <=1 
C467: x14+x35-y14_35 <=1 
C468: x14+x36-y14_36 <=1 
C469: x14+x38-y14_38 <=1 
C470: x14+x39 <=1 
C471: x14+x40 <=1 
C472: x14+x41-y14_41 <=1 
C473: x14+x42-y14_42 <=1 
C474: x14+x46 <=1 
C475: x14+x47 <=1 
C476: x14+x48 <=1 
C477: x14+x51 <=1 
C478: x14+x56-y14_56 <=1 
C479: x14+x58-y14_58 <=1 
C480: x15+x16-y15_16 <=1 
C481: x15+x17-y15_17 <=1 
C482: x15+x19 <=1 
C483: x15+x20-y15_20 <=1 
C484: x15+x22 <=1 
C485: x15+x23 <=1 
C486: x15+x24 <=1 
C487: x15+x26 <=1 
C488: x15+x27 <=1 
C489: x15+x28-y15_28 <=1 
C490: x15+x30 <=1 
C491: x15+x31 <=1 
C492: x15+x32-y15_32 <=1 
C493: x15+x35 <=1 
C494: x15+x36 <=1 
C495: x15+x38 <=1 
C496: x15+x39-y15_39 <=1 
C497: x15+x40-y15_40 <=1 
C498: x15+x43-y15_43 <=1 
C499: x15+x48-y15_48 <=1 
C500: x15+x49-y15_49 <=1 
C501: x15+x50-y15_50 <=1 
C502: x15+x51 <=1 
C503: x15+x52-y15_52 <=1 
C504: x15+x53 <=1 
C505: x15+x54 <=1 
C506: x15+x55 <=1 
C507: x15+x56-y15_56 <=1 
C508: x15+x59 <=1 
C509: x16+x17 <=1 
C510: x16+x18 <=1 
C511: x16+x20-y16_20 <=1 
C512: x16+x21 <=1 
C513: x16+x22-y16_22 <=1 
C514: x16+x23 <=1 
C515: x16+x27-y16_27 <=1 
C516: x16+x29 <=1 
C517: x16+x30-y16_30 <=1 
C518: x16+x31 <=1 
C519: x16+x32 <=1 
C520: x16+x33-y16_33 <=1 
C521: x16+x36 <=1 
C522: x16+x37-y16_37 <=1 
C523: x16+x40-y16_40 <=1 
C524: x16+x43-y16_43 <=1 
C525: x16+x45 <=1 
C526: x16+x46-y16_46 <=1 
C527: x16+x48 <=1 
C528: x16+x49-y16_49 <=1 
C529: x16+x50-y16_50 <=1 
C530: x16+x53-y16_53 <=1 
C531: x16+x54 <=1 
C532: x16+x55-y16_55 <=1 
C533: x16+x58-y16_58 <=1 
C534: x16+x59 <=1 
C535: x17+x19-y17_19 <=1 
C536: x17+x20-y17_20 <=1 
C537: x17+x21-y17_21 <=1 
C538: x17+x24 <=1 
C539: x17+x26-y17_26 <=1 
C540: x17+x27 <=1 
C541: x17+x28 <=1 
C542: x17+x29 <=1 
C543: x17+x30-y17_30 <=1 
C544: x17+x33-y17_33 <=1 
C545: x17+x34-y17_34 <=1 
C546: x17+x37-y17_37 <=1 
C547: x17+x38-y17_38 <=1 
C548: x17+x40-y17_40 <=1 
C549: x17+x41-y17_41 <=1 
C550: x17+x45-y17_45 <=1 
C551: x17+x47-y17_47 <=1 
C552: x17+x49 <=1 
C553: x17+x51 <=1 
C554: x17+x52 <=1 
C555: x17+x53-y17_53 <=1 
C556: x17+x57-y17_57 <=1 
C557: x17+x59 <=1 
C558: x18+x19-y18_19 <=1 
C559: x18+x20 <=1 
C560: x18+x22-y18_22 <=1 
C561: x18+x23 <=1 
C562: x18+x26-y18_26 <=1 
C563: x18+x31-y18_31 <=1 
C564: x18+x34-y18_34 <=1 
C565: x18+x35 <=1 
C566: x18+x36-y18_36 <=1 
C567: x18+x37 <=1 
C568: x18+x38-y18_38 <=1 
C569: x18+x39-y18_39 <=1 
C570: x18+x41-y18_41 <=1 
C571: x18+x42 <=1 
C572: x18+x43-y18_43 <=1 
C573: x18+x44 <=1 
C574: x18+x45 <=1 
C575: x18+x46 <=1 
C576: x18+x47-y18_47 <=1 
C577: x18+x52 <=1 
C578: x18+x53 <=1 
C579: x18+x57 <=1 
C580: x18+x58-y18_58 <=1 
C581: x18+x59 <=1 
C582: x19+x21 <=1 
C583: x19+x22-y19_22 <=1 
C584: x19+x23-y19_23 <=1 
C585: x19+x24-y19_24 <=1 
C586: x19+x25-y19_25 <=1 
C587: x19+x26-y19_26 <=1 
C588: x19+x27 <=1 
C589: x19+x28 <=1 
C590: x19+x31 <=1 
C591: x19+x32 <=1 
C592: x19+x33 <=1 
C593: x19+x34-y19_34 <=1 
C594: x19+x35-y19_35 <=1 
C595: x19+x36-y19_36 <=1 
C596: x19+x37 <=1 
C597: x19+x40 <=1 
C598: x19+x42 <=1 
C599: x19+x43-y19_43 <=1 
C600: x19+x44 <=1 
C601: x19+x47-y19_47 <=1 
C602: x19+x49 <=1 
C603: x19+x50-y19_50 <=1 
C604: x19+x53 <=1 
C605: x19+x54 <=1 
C606: x19+x55-y19_55 <=1 
C607: x19+x58 <=1 
C608: x20+x22-y20_22 <=1 
C609: x20+x23-y20_23 <=1 
C610: x20+x25-y20_25 <=1 
C611: x20+x26-y20_26 <=1 
C612: x20+x27-y20_27 <=1 
C613: x20+x28-y20_28 <=1 
C614: x20+x29 <=1 
C615: x20+x30-y20_30 <=1 
C616: x20+x31-y20_31 <=1 
C617: x20+x33-y20_33 <=1 
C618: x20+x34-y20_34 <=1 
C619: x20+x35-y20_35 <=1 
C620: x20+x37 <=1 
C621: x20+x38 <=1 
C622: x20+x39-y20_39 <=1 
C623: x20+x40 <=1 
C624: x20+x42-y20_42 <=1 
C625: x20+x43-y20_43 <=1 
C626: x20+x45 <=1 
C627: x20+x47 <=1 
C628: x20+x48 <=1 
C629: x20+x52 <=1 
C630: x20+x53-y20_53 <=1 
C631: x20+x54-y20_54 <=1 
C632: x20+x56 <=1 
C633: x20+x57-y20_57 <=1 
C634: x20+x58-y20_58 <=1 
C635: x21+x23 <=1 
C636: x21+x24-y21_24 <=1 
C637: x21+x26-y21_26 <=1 
C638: x21+x29 <=1 
C639: x21+x33-y21_33 <=1 
C640: x21+x34 <=1 
C641: x21+x37-y21_37 <=1 
C642: x21+x38-y21_38 <=1 
C643: x21+x39 <=1 
C644: x21+x40-y21_40 <=1 
C645: x21+x41-y21_41 <=1 
C646: x21+x44-y21_44 <=1 
C647: x21+x45-y21_45 <=1 
C648: x21+x46-y21_46 <=1 
C649: x21+x47-y21_47 <=1 
C650: x21+x51 <=1 
C651: x21+x52 <=1 
C652: x21+x54-y21_54 <=1 
C653: x21+x56 <=1 
C654: x21+x57-y21_57 <=1 
C655: x21+x59 <=1 
C656: x22+x23 <=1 
C657: x22+x24-y22_24 <=1 
C658: x22+x26 <=1 
C659: x22+x28 <=1 
C660: x22+x29-y22_29 <=1 
C661: x22+x31 <=1 
C662: x22+x34-y22_34 <=1 
C663: x22+x35-y22_35 <=1 
C664: x22+x36 <=1 
C665: x22+x39 <=1 
C666: x22+x40-y22_40 <=1 
C667: x22+x41 <=1 
C668: x22+x42-y22_42 <=1 
C669: x22+x43 <=1 
C670: x22+x44-y22_44 <=1 
C671: x22+x45 <=1 
C672: x22+x47-y22_47 <=1 
C673: x22+x48 <=1 
C674: x22+x49-y22_49 <=1 
C675: x22+x51-y22_51 <=1 
C676: x22+x53-y22_53 <=1 
C677: x22+x55-y22_55 <=1 
C678: x22+x56 <=1 
C679: x22+x57-y22_57 <=1 
C680: x22+x59-y22_59 <=1 
C681: x23+x28 <=1 
C682: x23+x30-y23_30 <=1 
C683: x23+x31 <=1 
C684: x23+x32 <=1 
C685: x23+x33 <=1 
C686: x23+x34 <=1 
C687: x23+x39 <=1 
C688: x23+x42 <=1 
C689: x23+x45-y23_45 <=1 
C690: x23+x46-y23_46 <=1 
C691: x23+x48 <=1 
C692: x23+x49-y23_49 <=1 
C693: x23+x50 <=1 
C694: x23+x51-y23_51 <=1 
C695: x23+x53 <=1 
C696: x23+x54-y23_54 <=1 
C697: x23+x56-y23_56 <=1 
C698: x23+x57-y23_57 <=1 
C699: x23+x58-y23_58 <=1 
C700: x23+x59-y23_59 <=1 
C701: x24+x26 <=1 
C702: x24+x27-y24_27 <=1 
C703: x24+x29 <=1 
C704: x24+x30 <=1 
C705: x24+x31-y24_31 <=1 
C706: x24+x32-y24_32 <=1 
C707: x24+x33 <=1 
C708: x24+x34 <=1 
C709: x24+x35-y24_35 <=1 
C710: x24+x36 <=1 
C711: x24+x37 <=1 
C712: x24+x39 <=1 
C713: x24+x40 <=1 
C714: x24+x41 <=1 
C715: x24+x42-y24_42 <=1 
C716: x24+x44-y24_44 <=1 
C717: x24+x45-y24_45 <=1 
C718: x24+x46-y24_46 <=1 
C719: x24+x47 <=1 
C720: x24+x49 <=1 
C721: x24+x50 <=1 
C722: x24+x52 <=1 
C723: x24+x53 <=1 
C724: x24+x58 <=1 
C725: x24+x59-y24_59 <=1 
C726: x25+x26 <=1 
C727: x25+x27 <=1 
C728: x25+x30 <=1 
C729: x25+x32 <=1 
C730: x25+x33 <=1 
C731: x25+x34-y25_34 <=1 
C732: x25+x35-y25_35 <=1 
C733: x25+x36-y25_36 <=1 
C734: x25+x37-y25_37 <=1 
C735: x25+x38 <=1 
C736: x25+x39-y25_39 <=1 
C737: x25+x41 <=1 
C738: x25+x42-y25_42 <=1 
C739: x25+x45-y25_45 <=1 
C740: x25+x46-y25_46 <=1 
C741: x25+x49 <=1 
C742: x25+x51 <=1 
C743: x25+x52 <=1 
C744: x25+x53 <=1 
C745: x25+x55 <=1 
C746: x25+x56 <=1 
C747: x25+x58-y25_58 <=1 
C748: x25+x59-y25_59 <=1 
C749: x26+x32-y26_32 <=1 
C750: x26+x34-y26_34 <=1 
C751: x26+x35 <=1 
C752: x26+x36 <=1 
C753: x26+x37 <=1 
C754: x26+x38 <=1 
C755: x26+x39 <=1 
C756: x26+x45 <=1 
C757: x26+x47 <=1 
C758: x26+x49-y26_49 <=1 
C759: x26+x50 <=1 
C760: x26+x51-y26_51 <=1 
C761: x26+x52-y26_52 <=1 
C762: x26+x54-y26_54 <=1 
C763: x26+x55 <=1 
C764: x26+x56 <=1 
C765: x26+x57 <=1 
C766: x26+x58 <=1 
C767: x26+x59-y26_59 <=1 
C768: x27+x29 <=1 
C769: x27+x30-y27_30 <=1 
C770: x27+x31 <=1 
C771: x27+x32 <=1 
C772: x27+x33-y27_33 <=1 
C773: x27+x38 <=1 
C774: x27+x43 <=1 
C775: x27+x46 <=1 
C776: x27+x47-y27_47 <=1 
C777: x27+x49 <=1 
C778: x27+x50-y27_50 <=1 
C779: x27+x51-y27_51 <=1 
C780: x27+x53 <=1 
C781: x27+x55 <=1 
C782: x27+x56-y27_56 <=1 
C783: x27+x57 <=1 
C784: x27+x58-y27_58 <=1 
C785: x27+x59-y27_59 <=1 
C786: x28+x29 <=1 
C787: x28+x30-y28_30 <=1 
C788: x28+x32 <=1 
C789: x28+x33 <=1 
C790: x28+x34-y28_34 <=1 
C791: x28+x37 <=1 
C792: x28+x38-y28_38 <=1 
C793: x28+x39 <=1 
C794: x28+x40-y28_40 <=1 
C795: x28+x42 <=1 
C796: x28+x43 <=1 
C797: x28+x44 <=1 
C798: x28+x45 <=1 
C799: x28+x46-y28_46 <=1 
C800: x28+x47-y28_47 <=1 
C801: x28+x48 <=1 
C802: x28+x49 <=1 
C803: x28+x51 <=1 
C804: x28+x52-y28_52 <=1 
C805: x28+x54 <=1 
C806: x28+x56 <=1 
C807: x28+x58-y28_58 <=1 
C808: x29+x30-y29_30 <=1 
C809: x29+x31 <=1 
C810: x29+x33-y29_33 <=1 
C811: x29+x34 <=1 
C812: x29+x36-y29_36 <=1 
C813: x29+x38-y29_38 <=1 
C814: x29+x39-y29_39 <=1 
C815: x29+x41-y29_41 <=1 
C816: x29+x43 <=1 
C817: x29+x44-y29_44 <=1 
C818: x29+x46-y29_46 <=1 
C819: x29+x47 <=1 
C820: x29+x48-y29_48 <=1 
C821: x29+x49 <=1 
C822: x29+x51-y29_51 <=1 
C823: x29+x55-y29_55 <=1 
C824: x29+x58-y29_58 <=1 
C825: x29+x59 <=1 
C826: x30+x31-y30_31 <=1 
C827: x30+x33-y30_33 <=1 
C828: x30+x34 <=1 
C829: x30+x35-y30_35 <=1 
C830: x30+x39 <=1 
C831: x30+x41-y30_41 <=1 
C832: x30+x44 <=1 
C833: x30+x45-y30_45 <=1 
C834: x30+x46-y30_46 <=1 
C835: x30+x47 <=1 
C836: x30+x48-y30_48 <=1 
C837: x30+x49-y30_49 <=1 
C838: x30+x54-y30_54 <=1 
C839: x30+x56 <=1 
C840: x30+x59-y30_59 <=1 
C841: x31+x32-y31_32 <=1 
C842: x31+x33-y31_33 <=1 
C843: x31+x34 <=1 
C844: x31+x36-y31_36 <=1 
C845: x31+x37 <=1 
C846: x31+x38 <=1 
C847: x31+x39-y31_39 <=1 
C848: x31+x41 <=1 
C849: x31+x43 <=1 
C850: x31+x44 <=1 
C851: x31+x45 <=1 
C852: x31+x46 <=1 
C853: x31+x47-y31_47 <=1 
C854: x31+x48 <=1 
C855: x31+x50 <=1 
C856: x31+x51 <=1 
C857: x31+x54 <=1 
C858: x31+x55-y31_55 <=1 
C859: x31+x58 <=1 
C860: x31+x59 <=1 
C861: x32+x36 <=1 
C862: x32+x37-y32_37 <=1 
C863: x32+x39-y32_39 <=1 
C864: x32+x40-y32_40 <=1 
C865: x32+x41-y32_41 <=1 
C866: x32+x42-y32_42 <=1 
C867: x32+x44 <=1 
C868: x32+x45 <=1 
C869: x32+x46-y32_46 <=1 
C870: x32+x48 <=1 
C871: x32+x51 <=1 
C872: x32+x52 <=1 
C873: x32+x53-y32_53 <=1 
C874: x32+x55-y32_55 <=1 
C875: x32+x56-y32_56 <=1 
C876: x32+x57 <=1 
C877: x32+x58 <=1 
C878: x33+x34-y33_34 <=1 
C879: x33+x35-y33_35 <=1 
C880: x33+x36 <=1 
C881: x33+x37-y33_37 <=1 
C882: x33+x38 <=1 
C883: x33+x39-y33_39 <=1 
C884: x33+x41 <=1 
C885: x33+x43-y33_43 <=1 
C886: x33+x47-y33_47 <=1 
C887: x33+x48 <=1 
C888: x33+x51 <=1 
C889: x33+x53 <=1 
C890: x33+x55 <=1 
C891: x33+x57 <=1 
C892: x33+x58 <=1 
C893: x33+x59 <=1 
C894: x34+x36 <=1 
C895: x34+x38-y34_38 <=1 
C896: x34+x39-y34_39 <=1 
C897: x34+x40-y34_40 <=1 
C898: x34+x41 <=1 
C899: x34+x42-y34_42 <=1 
C900: x34+x45-y34_45 <=1 
C901: x34+x47 <=1 
C902: x34+x48 <=1 
C903: x34+x49 <=1 
C904: x34+x50-y34_50 <=1 
C905: x34+x51 <=1 
C906: x34+x52-y34_52 <=1 
C907: x34+x53-y34_53 <=1 
C908: x34+x54-y34_54 <=1 
C909: x34+x55 <=1 
C910: x34+x56 <=1 
C911: x34+x59-y34_59 <=1 
C912: x35+x36 <=1 
C913: x35+x37-y35_37 <=1 
C914: x35+x39 <=1 
C915: x35+x40-y35_40 <=1 
C916: x35+x41-y35_41 <=1 
C917: x35+x42-y35_42 <=1 
C918: x35+x43-y35_43 <=1 
C919: x35+x46-y35_46 <=1 
C920: x35+x47 <=1 
C921: x35+x48 <=1 
C922: x35+x49 <=1 
C923: x35+x50-y35_50 <=1 
C924: x35+x51 <=1 
C925: x35+x53-y35_53 <=1 
C926: x35+x56 <=1 
C927: x35+x57-y35_57 <=1 
C928: x35+x58-y35_58 <=1 
C929: x36+x37 <=1 
C930: x36+x38-y36_38 <=1 
C931: x36+x39-y36_39 <=1 
C932: x36+x40-y36_40 <=1 
C933: x36+x42-y36_42 <=1 
C934: x36+x46-y36_46 <=1 
C935: x36+x48-y36_48 <=1 
C936: x36+x50-y36_50 <=1 
C937: x36+x51-y36_51 <=1 
C938: x36+x52-y36_52 <=1 
C939: x36+x54-y36_54 <=1 
C940: x36+x55-y36_55 <=1 
C941: x36+x57-y36_57 <=1 
C942: x36+x58 <=1 
C943: x37+x38-y37_38 <=1 
C944: x37+x39-y37_39 <=1 
C945: x37+x40-y37_40 <=1 
C946: x37+x41 <=1 
C947: x37+x43 <=1 
C948: x37+x44-y37_44 <=1 
C949: x37+x45 <=1 
C950: x37+x46 <=1 
C951: x37+x47-y37_47 <=1 
C952: x37+x48 <=1 
C953: x37+x50-y37_50 <=1 
C954: x37+x51-y37_51 <=1 
C955: x37+x53-y37_53 <=1 
C956: x37+x55-y37_55 <=1 
C957: x37+x56 <=1 
C958: x37+x57 <=1 
C959: x38+x40 <=1 
C960: x38+x41 <=1 
C961: x38+x42-y38_42 <=1 
C962: x38+x45-y38_45 <=1 
C963: x38+x47 <=1 
C964: x38+x48 <=1 
C965: x38+x49-y38_49 <=1 
C966: x38+x50 <=1 
C967: x38+x51 <=1 
C968: x38+x52-y38_52 <=1 
C969: x38+x53 <=1 
C970: x38+x54 <=1 
C971: x38+x56-y38_56 <=1 
C972: x38+x57-y38_57 <=1 
C973: x38+x58 <=1 
C974: x38+x59 <=1 
C975: x39+x40 <=1 
C976: x39+x41 <=1 
C977: x39+x42 <=1 
C978: x39+x43-y39_43 <=1 
C979: x39+x45-y39_45 <=1 
C980: x39+x46-y39_46 <=1 
C981: x39+x47-y39_47 <=1 
C982: x39+x48 <=1 
C983: x39+x49-y39_49 <=1 
C984: x39+x51 <=1 
C985: x39+x52-y39_52 <=1 
C986: x39+x53-y39_53 <=1 
C987: x39+x54 <=1 
C988: x39+x55-y39_55 <=1 
C989: x39+x56-y39_56 <=1 
C990: x39+x58-y39_58 <=1 
C991: x39+x59 <=1 
C992: x40+x43 <=1 
C993: x40+x44 <=1 
C994: x40+x45 <=1 
C995: x40+x47 <=1 
C996: x40+x48-y40_48 <=1 
C997: x40+x49-y40_49 <=1 
C998: x40+x51-y40_51 <=1 
C999: x40+x52 <=1 
C1000: x40+x53-y40_53 <=1 
C1001: x40+x54 <=1 
C1002: x40+x55 <=1 
C1003: x40+x58 <=1 
C1004: x40+x59-y40_59 <=1 
C1005: x41+x42-y41_42 <=1 
C1006: x41+x46-y41_46 <=1 
C1007: x41+x48 <=1 
C1008: x41+x49 <=1 
C1009: x41+x53 <=1 
C1010: x41+x54-y41_54 <=1 
C1011: x41+x55-y41_55 <=1 
C1012: x41+x58 <=1 
C1013: x41+x59 <=1 
C1014: x42+x43-y42_43 <=1 
C1015: x42+x44-y42_44 <=1 
C1016: x42+x47 <=1 
C1017: x42+x48-y42_48 <=1 
C1018: x42+x49 <=1 
C1019: x42+x50-y42_50 <=1 
C1020: x42+x53-y42_53 <=1 
C1021: x42+x54 <=1 
C1022: x42+x55 <=1 
C1023: x43+x44 <=1 
C1024: x43+x46-y43_46 <=1 
C1025: x43+x47 <=1 
C1026: x43+x49-y43_49 <=1 
C1027: x43+x50-y43_50 <=1 
C1028: x43+x51 <=1 
C1029: x43+x53-y43_53 <=1 
C1030: x44+x46 <=1 
C1031: x44+x48-y44_48 <=1 
C1032: x44+x49-y44_49 <=1 
C1033: x44+x50 <=1 
C1034: x44+x51 <=1 
C1035: x44+x52 <=1 
C1036: x44+x53-y44_53 <=1 
C1037: x44+x54-y44_54 <=1 
C1038: x44+x55-y44_55 <=1 
C1039: x45+x46-y45_46 <=1 
C1040: x45+x47-y45_47 <=1 
C1041: x45+x48 <=1 
C1042: x45+x49 <=1 
C1043: x45+x52 <=1 
C1044: x45+x54-y45_54 <=1 
C1045: x45+x55 <=1 
C1046: x45+x56-y45_56 <=1 
C1047: x45+x59-y45_59 <=1 
C1048: x46+x48 <=1 
C1049: x46+x49-y46_49 <=1 
C1050: x46+x51 <=1 
C1051: x46+x52-y46_52 <=1 
C1052: x46+x53-y46_53 <=1 
C1053: x46+x55-y46_55 <=1 
C1054: x46+x56-y46_56 <=1 
C1055: x46+x58-y46_58 <=1 
C1056: x46+x59-y46_59 <=1 
C1057: x47+x49-y47_49 <=1 
C1058: x47+x50-y47_50 <=1 
C1059: x47+x51 <=1 
C1060: x47+x53-y47_53 <=1 
C1061: x47+x54-y47_54 <=1 
C1062: x47+x58-y47_58 <=1 
C1063: x48+x50-y48_50 <=1 
C1064: x48+x51 <=1 
C1065: x48+x53 <=1 
C1066: x48+x55-y48_55 <=1 
C1067: x48+x56-y48_56 <=1 
C1068: x48+x59-y48_59 <=1 
C1069: x49+x51-y49_51 <=1 
C1070: x49+x52-y49_52 <=1 
C1071: x49+x53 <=1 
C1072: x49+x54-y49_54 <=1 
C1073: x49+x55 <=1 
C1074: x49+x56 <=1 
C1075: x49+x57-y49_57 <=1 
C1076: x49+x58-y49_58 <=1 
C1077: x50+x54-y50_54 <=1 
C1078: x50+x55 <=1 
C1079: x50+x56 <=1 
C1080: x50+x57 <=1 
C1081: x50+x58-y50_58 <=1 
C1082: x50+x59 <=1 
C1083: x51+x54-y51_54 <=1 
C1084: x51+x55 <=1 
C1085: x51+x57 <=1 
C1086: x51+x58-y51_58 <=1 
C1087: x51+x59-y51_59 <=1 
C1088: x52+x56-y52_56 <=1 
C1089: x52+x58-y52_58 <=1 
C1090: x52+x59-y52_59 <=1 
C1091: x53+x54 <=1 
C1092: x53+x56 <=1 
C1093: x53+x58-y53_58 <=1 
C1094: x54+x59-y54_59 <=1 
C1095: x55+x56-y55_56 <=1 
C1096: x55+x58 <=1 
C1097: x55+x59-y55_59 <=1 
C1098: x56+x57-y56_57 <=1 
C1099: x56+x58-y56_58 <=1 
C1100: x56+x59 <=1 
C1101: x58+x59-y58_59 <=1 

binary
x0
x1
x2
x3
x4
x5
x6
x7
x8
x9
x10
x11
x12
x13
x14
x15
x16
x17
x18
x19
x20
x21
x22
x23
x24
x25
x26
x27
x28
x29
x30
x31
x32
x33
x34
x35
x36
x37
x38
x39
x40
x41
x42
x43
x44
x45
x46
x47
x48
x49
x50
x51
x52
x53
x54
x55
x56
x57
x58
x59
